(set-logic QF_BV)
(declare-fun _substvar_96_ () (_ BitVec 127))
(declare-fun _substvar_82_ () (_ BitVec 127))
(declare-fun _substvar_148_ () Bool)
(declare-fun _substvar_61_ () (_ BitVec 127))
(declare-fun _substvar_91_ () (_ BitVec 127))
(assert (and true true true true true true true true true true true true true true true true true true true true true true true true true true true true true true true true true true true true true true true true true true true true true true true true true true true true true true true true true true true true true true true true true true true true true true true true true true true true true true true true true true true true true true true true true true true true true true true true true true true true true true true true true true true true true true true true true true true true true true true true true true true true (= _substvar_91_ (_ bv0 127)) (ite _substvar_148_ (= _substvar_96_ (_ bv0 127)) (= _substvar_96_ (concat (_ bv0 126) (bvxor (_ bv0 1) ((_ extract 125 125) _substvar_91_))))) (= _substvar_82_ (concat ((_ extract 125 0) _substvar_96_) (bvxor ((_ extract 126 126) _substvar_96_) ((_ extract 125 125) _substvar_96_)))) (= _substvar_61_ (concat ((_ extract 125 0) _substvar_82_) (_ bv0 1))) true true true true true true true true true true true true true true true true true true true true true true true true true true true true true true true true true true true true true true true true true true true true true true true true true true true true true true true true true true true true true true true true true true true true true true true true true true true true true true true true true true true true true true true true true true true true true true true true true true true true true true true true true true true true true true true true true true true true true true true true true true true true true true true true true true true (= (= _substvar_61_ (_ bv0 127)) false)))
(check-sat)
(exit)
